MSW02
Position Depot: Random
Horizon for Depot: Small
Position of customers: Mixt
Distribution of the demand: Small
Width of time windows: Wide
Distribution of the service: Small

VEHICLE 
NUMBER 	 CAPACITY 
 8 	 	 43 
 
CUSTOMER
CUST NO. 	 XCOORD.  	 YCOORD. 	 DEMAND 	 READY TIME 	 DUE DATE 	 SERVICE TIME 
 0 	 	 517 	 	 900 	 	 0 	 	 0 	 	 2263 	 	 0 
  1 	 	 153 	 	 223 	 	 10 	 	 591 	 	 845 	 	 98 
  2 	 	 846 	 	 590 	 	 6 	 	 1784 	 	 2263 	 	 58 
  3 	 	 869 	 	 436 	 	 5 	 	 1614 	 	 1956 	 	 82 
  4 	 	 967 	 	 351 	 	 6 	 	 1636 	 	 1901 	 	 94 
  5 	 	 224 	 	 992 	 	 7 	 	 1267 	 	 1759 	 	 98 
  6 	 	 874 	 	 728 	 	 6 	 	 36 	 	 472 	 	 73 
  7 	 	 935 	 	 725 	 	 5 	 	 304 	 	 514 	 	 88 
  8 	 	 890 	 	 434 	 	 8 	 	 2019 	 	 2228 	 	 85 
  9 	 	 849 	 	 389 	 	 7 	 	 1806 	 	 2263 	 	 62 
  10 	 	 139 	 	 137 	 	 10 	 	 1459 	 	 1903 	 	 100 
  11 	 	 681 	 	 464 	 	 10 	 	 575 	 	 791 	 	 80 
  12 	 	 989 	 	 369 	 	 10 	 	 939 	 	 1371 	 	 76 
  13 	 	 817 	 	 377 	 	 10 	 	 391 	 	 663 	 	 98 
  14 	 	 132 	 	 230 	 	 7 	 	 441 	 	 850 	 	 95 
  15 	 	 163 	 	 251 	 	 9 	 	 1943 	 	 2263 	 	 95 
  16 	 	 176 	 	 139 	 	 8 	 	 1967 	 	 2263 	 	 71 
  17 	 	 898 	 	 714 	 	 9 	 	 1006 	 	 1266 	 	 70 
  18 	 	 963 	 	 336 	 	 7 	 	 461 	 	 792 	 	 54 
  19 	 	 936 	 	 771 	 	 5 	 	 857 	 	 1224 	 	 98 
  20 	 	 714 	 	 543 	 	 8 	 	 136 	 	 473 	 	 62 
  21 	 	 145 	 	 375 	 	 8 	 	 1087 	 	 1500 	 	 94 
  22 	 	 858 	 	 588 	 	 5 	 	 907 	 	 1197 	 	 69 
  23 	 	 836 	 	 457 	 	 9 	 	 1350 	 	 1842 	 	 69 
  24 	 	 892 	 	 494 	 	 8 	 	 804 	 	 1218 	 	 92 
  25 	 	 914 	 	 423 	 	 8 	 	 1479 	 	 1731 	 	 61 
  26 	 	 301 	 	 346 	 	 6 	 	 1960 	 	 2263 	 	 56 
  27 	 	 611 	 	 156 	 	 5 	 	 621 	 	 824 	 	 67 
  28 	 	 42 	 	 395 	 	 7 	 	 1880 	 	 2169 	 	 55 
  29 	 	 49 	 	 322 	 	 5 	 	 592 	 	 1065 	 	 80 
  30 	 	 92 	 	 939 	 	 5 	 	 979 	 	 1325 	 	 98 
  31 	 	 809 	 	 734 	 	 6 	 	 1461 	 	 1917 	 	 74 
  32 	 	 391 	 	 814 	 	 6 	 	 340 	 	 618 	 	 90 
  33 	 	 553 	 	 148 	 	 5 	 	 1936 	 	 2263 	 	 91 
  34 	 	 804 	 	 400 	 	 5 	 	 362 	 	 634 	 	 85 
  35 	 	 69 	 	 430 	 	 10 	 	 992 	 	 1369 	 	 54 
  36 	 	 493 	 	 546 	 	 9 	 	 1200 	 	 1554 	 	 74 
  37 	 	 899 	 	 794 	 	 6 	 	 1955 	 	 2163 	 	 67 
  38 	 	 98 	 	 41 	 	 10 	 	 852 	 	 1306 	 	 52 
  39 	 	 896 	 	 139 	 	 6 	 	 518 	 	 935 	 	 52 
  40 	 	 700 	 	 666 	 	 5 	 	 1069 	 	 1281 	 	 89 
  41 	 	 438 	 	 7 	 	 7 	 	 1909 	 	 2215 	 	 100 
  42 	 	 803 	 	 720 	 	 9 	 	 703 	 	 1195 	 	 99 
  43 	 	 495 	 	 475 	 	 6 	 	 1454 	 	 1794 	 	 87 
  44 	 	 291 	 	 105 	 	 7 	 	 538 	 	 909 	 	 96 
  45 	 	 711 	 	 536 	 	 9 	 	 320 	 	 772 	 	 61 
  46 	 	 532 	 	 751 	 	 6 	 	 758 	 	 1159 	 	 78 
  47 	 	 398 	 	 489 	 	 8 	 	 1796 	 	 2263 	 	 81 
  48 	 	 220 	 	 154 	 	 6 	 	 1487 	 	 1763 	 	 91 
  49 	 	 960 	 	 381 	 	 6 	 	 310 	 	 750 	 	 99 
  50 	 	 880 	 	 230 	 	 5 	 	 1458 	 	 1891 	 	 86 
 